;; sat

(declare-const x1 sl.list.loc)
(declare-const x2 sl.list.loc)
(declare-const x3 sl.list.loc)
(declare-const x4 sl.list.loc)
(declare-const x5 sl.list.loc)
(declare-const x6 sl.list.loc)
(declare-const x7 sl.list.loc)
(declare-const x8 sl.list.loc)
(declare-const x9 sl.list.loc)
(declare-const x10 sl.list.loc)
(declare-const x11 sl.list.loc)
(declare-const x12 sl.list.loc)

(assert (and (sl.sepcon (sl.list.eq sl.list.null sl.list.null)
 (sl.sepcon (sl.sepcon (sl.sepcon (sl.sepcon (sl.sepcon (sl.sepcon (sl.sepcon (sl.sepcon (sl.sepcon (sl.sepcon (sl.sepcon (sl.list.next x10 x7)
 (sl.list.next x2 x4)
)
 (sl.list.seg x6 x1)
)
 (sl.list.seg x1 x11)
)
 (sl.list.seg x12 x10)
)
 (sl.list.next x5 x7)
)
 (sl.list.seg x3 x10)
)
 (sl.list.seg x9 x10)
)
 (sl.list.next x4 x12)
)
 (sl.list.seg x7 x5)
)
 (sl.list.seg x11 x10)
)
 (sl.list.next x8 x9)
)
)
 (not (sl.sepcon (sl.sepcon (sl.sepcon (sl.sepcon (sl.sepcon (sl.sepcon (sl.sepcon (sl.list.seg x5 x7)
 (sl.list.seg x2 x4)
)
 (sl.list.seg x8 x9)
)
 (sl.list.seg x9 x10)
)
 (sl.list.seg x6 x1)
)
 (sl.list.seg x4 x10)
)
 (sl.list.seg x3 x10)
)
 (sl.list.seg x1 x5)
)
))
)

